c AI planning file sortnetsort7.v.stepl.006.qcnf (Jussi.Rintanen@NICTA.com.au)
p cnf 798 2631 
e 57 58 59 60 61 62 63 64 65 66 67 68 69 70 71 72 73 74 75 76 77 78 79 80 81 82 83 84 85 86 87 88 89 90 91 92 93 94 95 96 97 98 99 100 101 102 103 104 105 106 107 108 109 110 111 112 113 114 115 116 117 118 119 120 121 122 123 124 125 126 127 128 129 130 131 132 133 134 135 136 137 138 139 140 141 142 143 144 145 146 147 148 149 150 151 152 153 154 155 156 157 158 159 160 161 162 163 164 165 166 167 168 169 170 171 172 173 174 175 176 177 178 179 180 181 182 0
a 183 1 2 3 4 5 6 7 0
e 8 9 10 11 12 13 14 15 16 17 18 19 20 21 22 23 24 25 26 27 28 29 30 31 32 33 34 35 36 37 38 39 40 41 42 43 44 45 46 47 48 49 50 51 52 53 54 55 56 184 185 186 187 188 189 190 191 192 193 194 195 196 197 198 199 200 201 202 203 204 205 206 207 208 209 210 211 212 213 214 215 216 217 218 219 220 221 222 223 224 225 226 227 228 229 230 231 232 233 234 235 236 237 238 239 240 241 242 243 244 245 246 247 248 249 250 251 252 253 254 255 256 257 258 259 260 261 262 263 264 265 266 267 268 269 270 271 272 273 274 275 276 277 278 279 280 281 282 283 284 285 286 287 288 289 290 291 292 293 294 295 296 297 298 299 300 301 302 303 304 305 306 307 308 309 310 311 312 313 314 315 316 317 318 319 320 321 322 323 324 325 326 327 328 329 330 331 332 333 334 335 336 337 338 339 340 341 342 343 344 345 346 347 348 349 350 351 352 353 354 355 356 357 358 359 360 361 362 363 364 365 366 367 368 369 370 371 372 373 374 375 376 377 378 379 380 381 382 383 384 385 386 387 388 389 390 391 392 393 394 395 396 397 398 399 400 401 402 403 404 405 406 407 408 409 410 411 412 413 414 415 416 417 418 419 420 421 422 423 424 425 426 427 428 429 430 431 432 433 434 435 436 437 438 439 440 441 442 443 444 445 446 447 448 449 450 451 452 453 454 455 456 457 458 459 460 461 462 463 464 465 466 467 468 469 470 471 472 473 474 475 476 477 478 479 480 481 482 483 484 485 486 487 488 489 490 491 492 493 494 495 496 497 498 499 500 501 502 503 504 505 506 507 508 509 510 511 512 513 514 515 516 517 518 519 520 521 522 523 524 525 526 527 528 529 530 531 532 533 534 535 536 537 538 539 540 541 542 543 544 545 546 547 548 549 550 551 552 553 554 555 556 557 558 559 560 561 562 563 564 565 566 567 568 569 570 571 572 573 574 575 576 577 578 579 580 581 582 583 584 585 586 587 588 589 590 591 592 593 594 595 596 597 598 599 600 601 602 603 604 605 606 607 608 609 610 611 612 613 614 615 616 617 618 619 620 621 622 623 624 625 626 627 628 629 630 631 632 633 634 635 636 637 638 639 640 641 642 643 644 645 646 647 648 649 650 651 652 653 654 655 656 657 658 659 660 661 662 663 664 665 666 667 668 669 670 671 672 673 674 675 676 677 678 679 680 681 682 683 684 685 686 687 688 689 690 691 692 693 694 695 696 697 698 699 700 701 702 703 704 705 706 707 708 709 710 711 712 713 714 715 716 717 718 719 720 721 722 723 724 725 726 727 728 729 730 731 732 733 734 735 736 737 738 739 740 741 742 743 744 745 746 747 748 749 750 751 752 753 754 755 756 757 758 759 760 761 762 763 764 765 766 767 768 769 770 771 772 773 774 775 776 777 778 779 780 781 782 783 784 785 786 787 788 789 790 791 792 793 794 795 796 797 798 0
-49 50 0
-50 51 0
-51 52 0
-52 53 0
-53 54 0
-54 55 0
-186 -183 8 0
-186 -8 183 0
-186 185 0
-185 186 0
-185 183 184 0
-183 185 0
-184 185 0
-184 -183 0
183 184 0
1 -9 0
-1 9 252 251 250 249 248 247 0
-252 57 0
-252 -2 0
-252 1 0
-57 -1 2 252 0
-251 58 0
-251 -3 0
-251 1 0
-58 -1 3 251 0
-250 59 0
-250 -4 0
-250 1 0
-59 -1 4 250 0
-249 60 0
-249 -5 0
-249 1 0
-60 -1 5 249 0
-248 61 0
-248 -6 0
-248 1 0
-61 -1 6 248 0
-247 62 0
-247 -7 0
-247 1 0
-62 -1 7 247 0
2 -10 253 0
-2 10 258 257 256 255 254 0
-253 57 0
-253 -2 0
-253 1 0
-57 -1 2 253 0
-258 63 0
-258 -3 0
-258 2 0
-63 -2 3 258 0
-257 64 0
-257 -4 0
-257 2 0
-64 -2 4 257 0
-256 65 0
-256 -5 0
-256 2 0
-65 -2 5 256 0
-255 66 0
-255 -6 0
-255 2 0
-66 -2 6 255 0
-254 67 0
-254 -7 0
-254 2 0
-67 -2 7 254 0
3 -11 260 259 0
-3 11 264 263 262 261 0
-260 58 0
-260 -3 0
-260 1 0
-58 -1 3 260 0
-259 63 0
-259 -3 0
-259 2 0
-63 -2 3 259 0
-264 68 0
-264 -4 0
-264 3 0
-68 -3 4 264 0
-263 69 0
-263 -5 0
-263 3 0
-69 -3 5 263 0
-262 70 0
-262 -6 0
-262 3 0
-70 -3 6 262 0
-261 71 0
-261 -7 0
-261 3 0
-71 -3 7 261 0
4 -12 267 266 265 0
-4 12 270 269 268 0
-267 59 0
-267 -4 0
-267 1 0
-59 -1 4 267 0
-266 64 0
-266 -4 0
-266 2 0
-64 -2 4 266 0
-265 68 0
-265 -4 0
-265 3 0
-68 -3 4 265 0
-270 72 0
-270 -5 0
-270 4 0
-72 -4 5 270 0
-269 73 0
-269 -6 0
-269 4 0
-73 -4 6 269 0
-268 74 0
-268 -7 0
-268 4 0
-74 -4 7 268 0
5 -13 274 273 272 271 0
-5 13 276 275 0
-274 60 0
-274 -5 0
-274 1 0
-60 -1 5 274 0
-273 65 0
-273 -5 0
-273 2 0
-65 -2 5 273 0
-272 69 0
-272 -5 0
-272 3 0
-69 -3 5 272 0
-271 72 0
-271 -5 0
-271 4 0
-72 -4 5 271 0
-276 75 0
-276 -6 0
-276 5 0
-75 -5 6 276 0
-275 76 0
-275 -7 0
-275 5 0
-76 -5 7 275 0
6 -14 281 280 279 278 277 0
-6 14 282 0
-281 61 0
-281 -6 0
-281 1 0
-61 -1 6 281 0
-280 66 0
-280 -6 0
-280 2 0
-66 -2 6 280 0
-279 70 0
-279 -6 0
-279 3 0
-70 -3 6 279 0
-278 73 0
-278 -6 0
-278 4 0
-73 -4 6 278 0
-277 75 0
-277 -6 0
-277 5 0
-75 -5 6 277 0
-282 77 0
-282 -7 0
-282 6 0
-77 -6 7 282 0
7 -15 288 287 286 285 284 283 0
-7 15 0
-288 62 0
-288 -7 0
-288 1 0
-62 -1 7 288 0
-287 67 0
-287 -7 0
-287 2 0
-67 -2 7 287 0
-286 71 0
-286 -7 0
-286 3 0
-71 -3 7 286 0
-285 74 0
-285 -7 0
-285 4 0
-74 -4 7 285 0
-284 76 0
-284 -7 0
-284 5 0
-76 -5 7 284 0
-283 77 0
-283 -7 0
-283 6 0
-77 -6 7 283 0
8 -16 0
-8 16 0
-57 -1 2 -9 0
-57 -1 2 10 0
-58 -1 3 -9 0
-58 -1 3 11 0
-59 -1 4 -9 0
-59 -1 4 12 0
-60 -1 5 -9 0
-60 -1 5 13 0
-61 -1 6 -9 0
-61 -1 6 14 0
-62 -1 7 -9 0
-62 -1 7 15 0
-63 -2 3 -10 0
-63 -2 3 11 0
-64 -2 4 -10 0
-64 -2 4 12 0
-65 -2 5 -10 0
-65 -2 5 13 0
-66 -2 6 -10 0
-66 -2 6 14 0
-67 -2 7 -10 0
-67 -2 7 15 0
-68 -3 4 -11 0
-68 -3 4 12 0
-69 -3 5 -11 0
-69 -3 5 13 0
-70 -3 6 -11 0
-70 -3 6 14 0
-71 -3 7 -11 0
-71 -3 7 15 0
-72 -4 5 -12 0
-72 -4 5 13 0
-73 -4 6 -12 0
-73 -4 6 14 0
-74 -4 7 -12 0
-74 -4 7 15 0
-75 -5 6 -13 0
-75 -5 6 14 0
-76 -5 7 -13 0
-76 -5 7 15 0
-77 -6 7 -14 0
-77 -6 7 15 0
-215 216 0
-62 216 0
-215 -62 0
-214 215 0
-61 215 0
-214 -61 0
-213 214 0
-60 214 0
-213 -60 0
-212 213 0
-59 213 0
-212 -59 0
-57 212 0
-58 212 0
-57 -58 0
-210 211 0
-67 211 0
-210 -67 0
-209 210 0
-66 210 0
-209 -66 0
-208 209 0
-65 209 0
-208 -65 0
-63 208 0
-64 208 0
-63 -64 0
-57 -67 0
-57 -66 0
-57 -65 0
-57 -64 0
-57 -63 0
-206 207 0
-71 207 0
-206 -71 0
-205 206 0
-70 206 0
-205 -70 0
-68 205 0
-69 205 0
-68 -69 0
-204 -71 0
-204 -70 0
-204 -69 0
-204 -68 0
-58 204 0
-63 204 0
-58 -63 0
-202 203 0
-74 203 0
-202 -74 0
-72 202 0
-73 202 0
-72 -73 0
-201 -74 0
-201 -73 0
-201 -72 0
-200 201 0
-68 201 0
-200 -68 0
-59 200 0
-64 200 0
-59 -64 0
-75 199 0
-76 199 0
-75 -76 0
-198 -76 0
-198 -75 0
-197 198 0
-72 198 0
-197 -72 0
-196 197 0
-69 197 0
-196 -69 0
-60 196 0
-65 196 0
-60 -65 0
-195 -77 0
-194 195 0
-75 195 0
-194 -75 0
-193 194 0
-73 194 0
-193 -73 0
-192 193 0
-70 193 0
-192 -70 0
-61 192 0
-66 192 0
-61 -66 0
-190 191 0
-77 191 0
-190 -77 0
-189 190 0
-76 190 0
-189 -76 0
-188 189 0
-74 189 0
-188 -74 0
-187 188 0
-71 188 0
-187 -71 0
-62 187 0
-67 187 0
-62 -67 0
-245 246 0
-57 246 0
-245 -57 0
-244 245 0
-58 245 0
-244 -58 0
-243 244 0
-59 244 0
-243 -59 0
-242 243 0
-60 243 0
-242 -60 0
-62 242 0
-61 242 0
-62 -61 0
-241 -57 0
-240 241 0
-63 241 0
-240 -63 0
-239 240 0
-64 240 0
-239 -64 0
-238 239 0
-65 239 0
-238 -65 0
-67 238 0
-66 238 0
-67 -66 0
-237 -58 0
-237 -63 0
-236 237 0
-68 237 0
-236 -68 0
-235 236 0
-69 236 0
-235 -69 0
-71 235 0
-70 235 0
-71 -70 0
-63 234 0
-58 234 0
-63 -58 0
-233 -59 0
-233 -64 0
-233 -68 0
-232 233 0
-72 233 0
-232 -72 0
-74 232 0
-73 232 0
-74 -73 0
-230 231 0
-59 231 0
-230 -59 0
-68 230 0
-64 230 0
-68 -64 0
-229 -60 0
-229 -65 0
-229 -69 0
-229 -72 0
-76 229 0
-75 229 0
-76 -75 0
-227 228 0
-60 228 0
-227 -60 0
-226 227 0
-65 227 0
-226 -65 0
-72 226 0
-69 226 0
-72 -69 0
-77 -61 0
-77 -66 0
-77 -70 0
-77 -73 0
-77 -75 0
-224 225 0
-61 225 0
-224 -61 0
-223 224 0
-66 224 0
-223 -66 0
-222 223 0
-70 223 0
-222 -70 0
-75 222 0
-73 222 0
-75 -73 0
-220 221 0
-62 221 0
-220 -62 0
-219 220 0
-67 220 0
-219 -67 0
-218 219 0
-71 219 0
-218 -71 0
-217 218 0
-74 218 0
-217 -74 0
-77 217 0
-76 217 0
-77 -76 0
9 -17 0
-9 17 354 353 352 351 350 349 0
-354 78 0
-354 -10 0
-354 9 0
-78 -9 10 354 0
-353 79 0
-353 -11 0
-353 9 0
-79 -9 11 353 0
-352 80 0
-352 -12 0
-352 9 0
-80 -9 12 352 0
-351 81 0
-351 -13 0
-351 9 0
-81 -9 13 351 0
-350 82 0
-350 -14 0
-350 9 0
-82 -9 14 350 0
-349 83 0
-349 -15 0
-349 9 0
-83 -9 15 349 0
10 -18 355 0
-10 18 360 359 358 357 356 0
-355 78 0
-355 -10 0
-355 9 0
-78 -9 10 355 0
-360 84 0
-360 -11 0
-360 10 0
-84 -10 11 360 0
-359 85 0
-359 -12 0
-359 10 0
-85 -10 12 359 0
-358 86 0
-358 -13 0
-358 10 0
-86 -10 13 358 0
-357 87 0
-357 -14 0
-357 10 0
-87 -10 14 357 0
-356 88 0
-356 -15 0
-356 10 0
-88 -10 15 356 0
11 -19 362 361 0
-11 19 366 365 364 363 0
-362 79 0
-362 -11 0
-362 9 0
-79 -9 11 362 0
-361 84 0
-361 -11 0
-361 10 0
-84 -10 11 361 0
-366 89 0
-366 -12 0
-366 11 0
-89 -11 12 366 0
-365 90 0
-365 -13 0
-365 11 0
-90 -11 13 365 0
-364 91 0
-364 -14 0
-364 11 0
-91 -11 14 364 0
-363 92 0
-363 -15 0
-363 11 0
-92 -11 15 363 0
12 -20 369 368 367 0
-12 20 372 371 370 0
-369 80 0
-369 -12 0
-369 9 0
-80 -9 12 369 0
-368 85 0
-368 -12 0
-368 10 0
-85 -10 12 368 0
-367 89 0
-367 -12 0
-367 11 0
-89 -11 12 367 0
-372 93 0
-372 -13 0
-372 12 0
-93 -12 13 372 0
-371 94 0
-371 -14 0
-371 12 0
-94 -12 14 371 0
-370 95 0
-370 -15 0
-370 12 0
-95 -12 15 370 0
13 -21 376 375 374 373 0
-13 21 378 377 0
-376 81 0
-376 -13 0
-376 9 0
-81 -9 13 376 0
-375 86 0
-375 -13 0
-375 10 0
-86 -10 13 375 0
-374 90 0
-374 -13 0
-374 11 0
-90 -11 13 374 0
-373 93 0
-373 -13 0
-373 12 0
-93 -12 13 373 0
-378 96 0
-378 -14 0
-378 13 0
-96 -13 14 378 0
-377 97 0
-377 -15 0
-377 13 0
-97 -13 15 377 0
14 -22 383 382 381 380 379 0
-14 22 384 0
-383 82 0
-383 -14 0
-383 9 0
-82 -9 14 383 0
-382 87 0
-382 -14 0
-382 10 0
-87 -10 14 382 0
-381 91 0
-381 -14 0
-381 11 0
-91 -11 14 381 0
-380 94 0
-380 -14 0
-380 12 0
-94 -12 14 380 0
-379 96 0
-379 -14 0
-379 13 0
-96 -13 14 379 0
-384 98 0
-384 -15 0
-384 14 0
-98 -14 15 384 0
15 -23 390 389 388 387 386 385 0
-15 23 0
-390 83 0
-390 -15 0
-390 9 0
-83 -9 15 390 0
-389 88 0
-389 -15 0
-389 10 0
-88 -10 15 389 0
-388 92 0
-388 -15 0
-388 11 0
-92 -11 15 388 0
-387 95 0
-387 -15 0
-387 12 0
-95 -12 15 387 0
-386 97 0
-386 -15 0
-386 13 0
-97 -13 15 386 0
-385 98 0
-385 -15 0
-385 14 0
-98 -14 15 385 0
16 -24 0
-16 24 0
-78 -9 10 -17 0
-78 -9 10 18 0
-79 -9 11 -17 0
-79 -9 11 19 0
-80 -9 12 -17 0
-80 -9 12 20 0
-81 -9 13 -17 0
-81 -9 13 21 0
-82 -9 14 -17 0
-82 -9 14 22 0
-83 -9 15 -17 0
-83 -9 15 23 0
-84 -10 11 -18 0
-84 -10 11 19 0
-85 -10 12 -18 0
-85 -10 12 20 0
-86 -10 13 -18 0
-86 -10 13 21 0
-87 -10 14 -18 0
-87 -10 14 22 0
-88 -10 15 -18 0
-88 -10 15 23 0
-89 -11 12 -19 0
-89 -11 12 20 0
-90 -11 13 -19 0
-90 -11 13 21 0
-91 -11 14 -19 0
-91 -11 14 22 0
-92 -11 15 -19 0
-92 -11 15 23 0
-93 -12 13 -20 0
-93 -12 13 21 0
-94 -12 14 -20 0
-94 -12 14 22 0
-95 -12 15 -20 0
-95 -12 15 23 0
-96 -13 14 -21 0
-96 -13 14 22 0
-97 -13 15 -21 0
-97 -13 15 23 0
-98 -14 15 -22 0
-98 -14 15 23 0
-317 318 0
-83 318 0
-317 -83 0
-316 317 0
-82 317 0
-316 -82 0
-315 316 0
-81 316 0
-315 -81 0
-314 315 0
-80 315 0
-314 -80 0
-78 314 0
-79 314 0
-78 -79 0
-312 313 0
-88 313 0
-312 -88 0
-311 312 0
-87 312 0
-311 -87 0
-310 311 0
-86 311 0
-310 -86 0
-84 310 0
-85 310 0
-84 -85 0
-78 -88 0
-78 -87 0
-78 -86 0
-78 -85 0
-78 -84 0
-308 309 0
-92 309 0
-308 -92 0
-307 308 0
-91 308 0
-307 -91 0
-89 307 0
-90 307 0
-89 -90 0
-306 -92 0
-306 -91 0
-306 -90 0
-306 -89 0
-79 306 0
-84 306 0
-79 -84 0
-304 305 0
-95 305 0
-304 -95 0
-93 304 0
-94 304 0
-93 -94 0
-303 -95 0
-303 -94 0
-303 -93 0
-302 303 0
-89 303 0
-302 -89 0
-80 302 0
-85 302 0
-80 -85 0
-96 301 0
-97 301 0
-96 -97 0
-300 -97 0
-300 -96 0
-299 300 0
-93 300 0
-299 -93 0
-298 299 0
-90 299 0
-298 -90 0
-81 298 0
-86 298 0
-81 -86 0
-297 -98 0
-296 297 0
-96 297 0
-296 -96 0
-295 296 0
-94 296 0
-295 -94 0
-294 295 0
-91 295 0
-294 -91 0
-82 294 0
-87 294 0
-82 -87 0
-292 293 0
-98 293 0
-292 -98 0
-291 292 0
-97 292 0
-291 -97 0
-290 291 0
-95 291 0
-290 -95 0
-289 290 0
-92 290 0
-289 -92 0
-83 289 0
-88 289 0
-83 -88 0
-347 348 0
-78 348 0
-347 -78 0
-346 347 0
-79 347 0
-346 -79 0
-345 346 0
-80 346 0
-345 -80 0
-344 345 0
-81 345 0
-344 -81 0
-83 344 0
-82 344 0
-83 -82 0
-343 -78 0
-342 343 0
-84 343 0
-342 -84 0
-341 342 0
-85 342 0
-341 -85 0
-340 341 0
-86 341 0
-340 -86 0
-88 340 0
-87 340 0
-88 -87 0
-339 -79 0
-339 -84 0
-338 339 0
-89 339 0
-338 -89 0
-337 338 0
-90 338 0
-337 -90 0
-92 337 0
-91 337 0
-92 -91 0
-84 336 0
-79 336 0
-84 -79 0
-335 -80 0
-335 -85 0
-335 -89 0
-334 335 0
-93 335 0
-334 -93 0
-95 334 0
-94 334 0
-95 -94 0
-332 333 0
-80 333 0
-332 -80 0
-89 332 0
-85 332 0
-89 -85 0
-331 -81 0
-331 -86 0
-331 -90 0
-331 -93 0
-97 331 0
-96 331 0
-97 -96 0
-329 330 0
-81 330 0
-329 -81 0
-328 329 0
-86 329 0
-328 -86 0
-93 328 0
-90 328 0
-93 -90 0
-98 -82 0
-98 -87 0
-98 -91 0
-98 -94 0
-98 -96 0
-326 327 0
-82 327 0
-326 -82 0
-325 326 0
-87 326 0
-325 -87 0
-324 325 0
-91 325 0
-324 -91 0
-96 324 0
-94 324 0
-96 -94 0
-322 323 0
-83 323 0
-322 -83 0
-321 322 0
-88 322 0
-321 -88 0
-320 321 0
-92 321 0
-320 -92 0
-319 320 0
-95 320 0
-319 -95 0
-98 319 0
-97 319 0
-98 -97 0
17 -25 0
-17 25 456 455 454 453 452 451 0
-456 99 0
-456 -18 0
-456 17 0
-99 -17 18 456 0
-455 100 0
-455 -19 0
-455 17 0
-100 -17 19 455 0
-454 101 0
-454 -20 0
-454 17 0
-101 -17 20 454 0
-453 102 0
-453 -21 0
-453 17 0
-102 -17 21 453 0
-452 103 0
-452 -22 0
-452 17 0
-103 -17 22 452 0
-451 104 0
-451 -23 0
-451 17 0
-104 -17 23 451 0
18 -26 457 0
-18 26 462 461 460 459 458 0
-457 99 0
-457 -18 0
-457 17 0
-99 -17 18 457 0
-462 105 0
-462 -19 0
-462 18 0
-105 -18 19 462 0
-461 106 0
-461 -20 0
-461 18 0
-106 -18 20 461 0
-460 107 0
-460 -21 0
-460 18 0
-107 -18 21 460 0
-459 108 0
-459 -22 0
-459 18 0
-108 -18 22 459 0
-458 109 0
-458 -23 0
-458 18 0
-109 -18 23 458 0
19 -27 464 463 0
-19 27 468 467 466 465 0
-464 100 0
-464 -19 0
-464 17 0
-100 -17 19 464 0
-463 105 0
-463 -19 0
-463 18 0
-105 -18 19 463 0
-468 110 0
-468 -20 0
-468 19 0
-110 -19 20 468 0
-467 111 0
-467 -21 0
-467 19 0
-111 -19 21 467 0
-466 112 0
-466 -22 0
-466 19 0
-112 -19 22 466 0
-465 113 0
-465 -23 0
-465 19 0
-113 -19 23 465 0
20 -28 471 470 469 0
-20 28 474 473 472 0
-471 101 0
-471 -20 0
-471 17 0
-101 -17 20 471 0
-470 106 0
-470 -20 0
-470 18 0
-106 -18 20 470 0
-469 110 0
-469 -20 0
-469 19 0
-110 -19 20 469 0
-474 114 0
-474 -21 0
-474 20 0
-114 -20 21 474 0
-473 115 0
-473 -22 0
-473 20 0
-115 -20 22 473 0
-472 116 0
-472 -23 0
-472 20 0
-116 -20 23 472 0
21 -29 478 477 476 475 0
-21 29 480 479 0
-478 102 0
-478 -21 0
-478 17 0
-102 -17 21 478 0
-477 107 0
-477 -21 0
-477 18 0
-107 -18 21 477 0
-476 111 0
-476 -21 0
-476 19 0
-111 -19 21 476 0
-475 114 0
-475 -21 0
-475 20 0
-114 -20 21 475 0
-480 117 0
-480 -22 0
-480 21 0
-117 -21 22 480 0
-479 118 0
-479 -23 0
-479 21 0
-118 -21 23 479 0
22 -30 485 484 483 482 481 0
-22 30 486 0
-485 103 0
-485 -22 0
-485 17 0
-103 -17 22 485 0
-484 108 0
-484 -22 0
-484 18 0
-108 -18 22 484 0
-483 112 0
-483 -22 0
-483 19 0
-112 -19 22 483 0
-482 115 0
-482 -22 0
-482 20 0
-115 -20 22 482 0
-481 117 0
-481 -22 0
-481 21 0
-117 -21 22 481 0
-486 119 0
-486 -23 0
-486 22 0
-119 -22 23 486 0
23 -31 492 491 490 489 488 487 0
-23 31 0
-492 104 0
-492 -23 0
-492 17 0
-104 -17 23 492 0
-491 109 0
-491 -23 0
-491 18 0
-109 -18 23 491 0
-490 113 0
-490 -23 0
-490 19 0
-113 -19 23 490 0
-489 116 0
-489 -23 0
-489 20 0
-116 -20 23 489 0
-488 118 0
-488 -23 0
-488 21 0
-118 -21 23 488 0
-487 119 0
-487 -23 0
-487 22 0
-119 -22 23 487 0
24 -32 0
-24 32 0
-99 -17 18 -25 0
-99 -17 18 26 0
-100 -17 19 -25 0
-100 -17 19 27 0
-101 -17 20 -25 0
-101 -17 20 28 0
-102 -17 21 -25 0
-102 -17 21 29 0
-103 -17 22 -25 0
-103 -17 22 30 0
-104 -17 23 -25 0
-104 -17 23 31 0
-105 -18 19 -26 0
-105 -18 19 27 0
-106 -18 20 -26 0
-106 -18 20 28 0
-107 -18 21 -26 0
-107 -18 21 29 0
-108 -18 22 -26 0
-108 -18 22 30 0
-109 -18 23 -26 0
-109 -18 23 31 0
-110 -19 20 -27 0
-110 -19 20 28 0
-111 -19 21 -27 0
-111 -19 21 29 0
-112 -19 22 -27 0
-112 -19 22 30 0
-113 -19 23 -27 0
-113 -19 23 31 0
-114 -20 21 -28 0
-114 -20 21 29 0
-115 -20 22 -28 0
-115 -20 22 30 0
-116 -20 23 -28 0
-116 -20 23 31 0
-117 -21 22 -29 0
-117 -21 22 30 0
-118 -21 23 -29 0
-118 -21 23 31 0
-119 -22 23 -30 0
-119 -22 23 31 0
-419 420 0
-104 420 0
-419 -104 0
-418 419 0
-103 419 0
-418 -103 0
-417 418 0
-102 418 0
-417 -102 0
-416 417 0
-101 417 0
-416 -101 0
-99 416 0
-100 416 0
-99 -100 0
-414 415 0
-109 415 0
-414 -109 0
-413 414 0
-108 414 0
-413 -108 0
-412 413 0
-107 413 0
-412 -107 0
-105 412 0
-106 412 0
-105 -106 0
-99 -109 0
-99 -108 0
-99 -107 0
-99 -106 0
-99 -105 0
-410 411 0
-113 411 0
-410 -113 0
-409 410 0
-112 410 0
-409 -112 0
-110 409 0
-111 409 0
-110 -111 0
-408 -113 0
-408 -112 0
-408 -111 0
-408 -110 0
-100 408 0
-105 408 0
-100 -105 0
-406 407 0
-116 407 0
-406 -116 0
-114 406 0
-115 406 0
-114 -115 0
-405 -116 0
-405 -115 0
-405 -114 0
-404 405 0
-110 405 0
-404 -110 0
-101 404 0
-106 404 0
-101 -106 0
-117 403 0
-118 403 0
-117 -118 0
-402 -118 0
-402 -117 0
-401 402 0
-114 402 0
-401 -114 0
-400 401 0
-111 401 0
-400 -111 0
-102 400 0
-107 400 0
-102 -107 0
-399 -119 0
-398 399 0
-117 399 0
-398 -117 0
-397 398 0
-115 398 0
-397 -115 0
-396 397 0
-112 397 0
-396 -112 0
-103 396 0
-108 396 0
-103 -108 0
-394 395 0
-119 395 0
-394 -119 0
-393 394 0
-118 394 0
-393 -118 0
-392 393 0
-116 393 0
-392 -116 0
-391 392 0
-113 392 0
-391 -113 0
-104 391 0
-109 391 0
-104 -109 0
-449 450 0
-99 450 0
-449 -99 0
-448 449 0
-100 449 0
-448 -100 0
-447 448 0
-101 448 0
-447 -101 0
-446 447 0
-102 447 0
-446 -102 0
-104 446 0
-103 446 0
-104 -103 0
-445 -99 0
-444 445 0
-105 445 0
-444 -105 0
-443 444 0
-106 444 0
-443 -106 0
-442 443 0
-107 443 0
-442 -107 0
-109 442 0
-108 442 0
-109 -108 0
-441 -100 0
-441 -105 0
-440 441 0
-110 441 0
-440 -110 0
-439 440 0
-111 440 0
-439 -111 0
-113 439 0
-112 439 0
-113 -112 0
-105 438 0
-100 438 0
-105 -100 0
-437 -101 0
-437 -106 0
-437 -110 0
-436 437 0
-114 437 0
-436 -114 0
-116 436 0
-115 436 0
-116 -115 0
-434 435 0
-101 435 0
-434 -101 0
-110 434 0
-106 434 0
-110 -106 0
-433 -102 0
-433 -107 0
-433 -111 0
-433 -114 0
-118 433 0
-117 433 0
-118 -117 0
-431 432 0
-102 432 0
-431 -102 0
-430 431 0
-107 431 0
-430 -107 0
-114 430 0
-111 430 0
-114 -111 0
-119 -103 0
-119 -108 0
-119 -112 0
-119 -115 0
-119 -117 0
-428 429 0
-103 429 0
-428 -103 0
-427 428 0
-108 428 0
-427 -108 0
-426 427 0
-112 427 0
-426 -112 0
-117 426 0
-115 426 0
-117 -115 0
-424 425 0
-104 425 0
-424 -104 0
-423 424 0
-109 424 0
-423 -109 0
-422 423 0
-113 423 0
-422 -113 0
-421 422 0
-116 422 0
-421 -116 0
-119 421 0
-118 421 0
-119 -118 0
25 -33 0
-25 33 558 557 556 555 554 553 0
-558 120 0
-558 -26 0
-558 25 0
-120 -25 26 558 0
-557 121 0
-557 -27 0
-557 25 0
-121 -25 27 557 0
-556 122 0
-556 -28 0
-556 25 0
-122 -25 28 556 0
-555 123 0
-555 -29 0
-555 25 0
-123 -25 29 555 0
-554 124 0
-554 -30 0
-554 25 0
-124 -25 30 554 0
-553 125 0
-553 -31 0
-553 25 0
-125 -25 31 553 0
26 -34 559 0
-26 34 564 563 562 561 560 0
-559 120 0
-559 -26 0
-559 25 0
-120 -25 26 559 0
-564 126 0
-564 -27 0
-564 26 0
-126 -26 27 564 0
-563 127 0
-563 -28 0
-563 26 0
-127 -26 28 563 0
-562 128 0
-562 -29 0
-562 26 0
-128 -26 29 562 0
-561 129 0
-561 -30 0
-561 26 0
-129 -26 30 561 0
-560 130 0
-560 -31 0
-560 26 0
-130 -26 31 560 0
27 -35 566 565 0
-27 35 570 569 568 567 0
-566 121 0
-566 -27 0
-566 25 0
-121 -25 27 566 0
-565 126 0
-565 -27 0
-565 26 0
-126 -26 27 565 0
-570 131 0
-570 -28 0
-570 27 0
-131 -27 28 570 0
-569 132 0
-569 -29 0
-569 27 0
-132 -27 29 569 0
-568 133 0
-568 -30 0
-568 27 0
-133 -27 30 568 0
-567 134 0
-567 -31 0
-567 27 0
-134 -27 31 567 0
28 -36 573 572 571 0
-28 36 576 575 574 0
-573 122 0
-573 -28 0
-573 25 0
-122 -25 28 573 0
-572 127 0
-572 -28 0
-572 26 0
-127 -26 28 572 0
-571 131 0
-571 -28 0
-571 27 0
-131 -27 28 571 0
-576 135 0
-576 -29 0
-576 28 0
-135 -28 29 576 0
-575 136 0
-575 -30 0
-575 28 0
-136 -28 30 575 0
-574 137 0
-574 -31 0
-574 28 0
-137 -28 31 574 0
29 -37 580 579 578 577 0
-29 37 582 581 0
-580 123 0
-580 -29 0
-580 25 0
-123 -25 29 580 0
-579 128 0
-579 -29 0
-579 26 0
-128 -26 29 579 0
-578 132 0
-578 -29 0
-578 27 0
-132 -27 29 578 0
-577 135 0
-577 -29 0
-577 28 0
-135 -28 29 577 0
-582 138 0
-582 -30 0
-582 29 0
-138 -29 30 582 0
-581 139 0
-581 -31 0
-581 29 0
-139 -29 31 581 0
30 -38 587 586 585 584 583 0
-30 38 588 0
-587 124 0
-587 -30 0
-587 25 0
-124 -25 30 587 0
-586 129 0
-586 -30 0
-586 26 0
-129 -26 30 586 0
-585 133 0
-585 -30 0
-585 27 0
-133 -27 30 585 0
-584 136 0
-584 -30 0
-584 28 0
-136 -28 30 584 0
-583 138 0
-583 -30 0
-583 29 0
-138 -29 30 583 0
-588 140 0
-588 -31 0
-588 30 0
-140 -30 31 588 0
31 -39 594 593 592 591 590 589 0
-31 39 0
-594 125 0
-594 -31 0
-594 25 0
-125 -25 31 594 0
-593 130 0
-593 -31 0
-593 26 0
-130 -26 31 593 0
-592 134 0
-592 -31 0
-592 27 0
-134 -27 31 592 0
-591 137 0
-591 -31 0
-591 28 0
-137 -28 31 591 0
-590 139 0
-590 -31 0
-590 29 0
-139 -29 31 590 0
-589 140 0
-589 -31 0
-589 30 0
-140 -30 31 589 0
32 -40 0
-32 40 0
-120 -25 26 -33 0
-120 -25 26 34 0
-121 -25 27 -33 0
-121 -25 27 35 0
-122 -25 28 -33 0
-122 -25 28 36 0
-123 -25 29 -33 0
-123 -25 29 37 0
-124 -25 30 -33 0
-124 -25 30 38 0
-125 -25 31 -33 0
-125 -25 31 39 0
-126 -26 27 -34 0
-126 -26 27 35 0
-127 -26 28 -34 0
-127 -26 28 36 0
-128 -26 29 -34 0
-128 -26 29 37 0
-129 -26 30 -34 0
-129 -26 30 38 0
-130 -26 31 -34 0
-130 -26 31 39 0
-131 -27 28 -35 0
-131 -27 28 36 0
-132 -27 29 -35 0
-132 -27 29 37 0
-133 -27 30 -35 0
-133 -27 30 38 0
-134 -27 31 -35 0
-134 -27 31 39 0
-135 -28 29 -36 0
-135 -28 29 37 0
-136 -28 30 -36 0
-136 -28 30 38 0
-137 -28 31 -36 0
-137 -28 31 39 0
-138 -29 30 -37 0
-138 -29 30 38 0
-139 -29 31 -37 0
-139 -29 31 39 0
-140 -30 31 -38 0
-140 -30 31 39 0
-521 522 0
-125 522 0
-521 -125 0
-520 521 0
-124 521 0
-520 -124 0
-519 520 0
-123 520 0
-519 -123 0
-518 519 0
-122 519 0
-518 -122 0
-120 518 0
-121 518 0
-120 -121 0
-516 517 0
-130 517 0
-516 -130 0
-515 516 0
-129 516 0
-515 -129 0
-514 515 0
-128 515 0
-514 -128 0
-126 514 0
-127 514 0
-126 -127 0
-120 -130 0
-120 -129 0
-120 -128 0
-120 -127 0
-120 -126 0
-512 513 0
-134 513 0
-512 -134 0
-511 512 0
-133 512 0
-511 -133 0
-131 511 0
-132 511 0
-131 -132 0
-510 -134 0
-510 -133 0
-510 -132 0
-510 -131 0
-121 510 0
-126 510 0
-121 -126 0
-508 509 0
-137 509 0
-508 -137 0
-135 508 0
-136 508 0
-135 -136 0
-507 -137 0
-507 -136 0
-507 -135 0
-506 507 0
-131 507 0
-506 -131 0
-122 506 0
-127 506 0
-122 -127 0
-138 505 0
-139 505 0
-138 -139 0
-504 -139 0
-504 -138 0
-503 504 0
-135 504 0
-503 -135 0
-502 503 0
-132 503 0
-502 -132 0
-123 502 0
-128 502 0
-123 -128 0
-501 -140 0
-500 501 0
-138 501 0
-500 -138 0
-499 500 0
-136 500 0
-499 -136 0
-498 499 0
-133 499 0
-498 -133 0
-124 498 0
-129 498 0
-124 -129 0
-496 497 0
-140 497 0
-496 -140 0
-495 496 0
-139 496 0
-495 -139 0
-494 495 0
-137 495 0
-494 -137 0
-493 494 0
-134 494 0
-493 -134 0
-125 493 0
-130 493 0
-125 -130 0
-551 552 0
-120 552 0
-551 -120 0
-550 551 0
-121 551 0
-550 -121 0
-549 550 0
-122 550 0
-549 -122 0
-548 549 0
-123 549 0
-548 -123 0
-125 548 0
-124 548 0
-125 -124 0
-547 -120 0
-546 547 0
-126 547 0
-546 -126 0
-545 546 0
-127 546 0
-545 -127 0
-544 545 0
-128 545 0
-544 -128 0
-130 544 0
-129 544 0
-130 -129 0
-543 -121 0
-543 -126 0
-542 543 0
-131 543 0
-542 -131 0
-541 542 0
-132 542 0
-541 -132 0
-134 541 0
-133 541 0
-134 -133 0
-126 540 0
-121 540 0
-126 -121 0
-539 -122 0
-539 -127 0
-539 -131 0
-538 539 0
-135 539 0
-538 -135 0
-137 538 0
-136 538 0
-137 -136 0
-536 537 0
-122 537 0
-536 -122 0
-131 536 0
-127 536 0
-131 -127 0
-535 -123 0
-535 -128 0
-535 -132 0
-535 -135 0
-139 535 0
-138 535 0
-139 -138 0
-533 534 0
-123 534 0
-533 -123 0
-532 533 0
-128 533 0
-532 -128 0
-135 532 0
-132 532 0
-135 -132 0
-140 -124 0
-140 -129 0
-140 -133 0
-140 -136 0
-140 -138 0
-530 531 0
-124 531 0
-530 -124 0
-529 530 0
-129 530 0
-529 -129 0
-528 529 0
-133 529 0
-528 -133 0
-138 528 0
-136 528 0
-138 -136 0
-526 527 0
-125 527 0
-526 -125 0
-525 526 0
-130 526 0
-525 -130 0
-524 525 0
-134 525 0
-524 -134 0
-523 524 0
-137 524 0
-523 -137 0
-140 523 0
-139 523 0
-140 -139 0
33 -41 0
-33 41 660 659 658 657 656 655 0
-660 141 0
-660 -34 0
-660 33 0
-141 -33 34 660 0
-659 142 0
-659 -35 0
-659 33 0
-142 -33 35 659 0
-658 143 0
-658 -36 0
-658 33 0
-143 -33 36 658 0
-657 144 0
-657 -37 0
-657 33 0
-144 -33 37 657 0
-656 145 0
-656 -38 0
-656 33 0
-145 -33 38 656 0
-655 146 0
-655 -39 0
-655 33 0
-146 -33 39 655 0
34 -42 661 0
-34 42 666 665 664 663 662 0
-661 141 0
-661 -34 0
-661 33 0
-141 -33 34 661 0
-666 147 0
-666 -35 0
-666 34 0
-147 -34 35 666 0
-665 148 0
-665 -36 0
-665 34 0
-148 -34 36 665 0
-664 149 0
-664 -37 0
-664 34 0
-149 -34 37 664 0
-663 150 0
-663 -38 0
-663 34 0
-150 -34 38 663 0
-662 151 0
-662 -39 0
-662 34 0
-151 -34 39 662 0
35 -43 668 667 0
-35 43 672 671 670 669 0
-668 142 0
-668 -35 0
-668 33 0
-142 -33 35 668 0
-667 147 0
-667 -35 0
-667 34 0
-147 -34 35 667 0
-672 152 0
-672 -36 0
-672 35 0
-152 -35 36 672 0
-671 153 0
-671 -37 0
-671 35 0
-153 -35 37 671 0
-670 154 0
-670 -38 0
-670 35 0
-154 -35 38 670 0
-669 155 0
-669 -39 0
-669 35 0
-155 -35 39 669 0
36 -44 675 674 673 0
-36 44 678 677 676 0
-675 143 0
-675 -36 0
-675 33 0
-143 -33 36 675 0
-674 148 0
-674 -36 0
-674 34 0
-148 -34 36 674 0
-673 152 0
-673 -36 0
-673 35 0
-152 -35 36 673 0
-678 156 0
-678 -37 0
-678 36 0
-156 -36 37 678 0
-677 157 0
-677 -38 0
-677 36 0
-157 -36 38 677 0
-676 158 0
-676 -39 0
-676 36 0
-158 -36 39 676 0
37 -45 682 681 680 679 0
-37 45 684 683 0
-682 144 0
-682 -37 0
-682 33 0
-144 -33 37 682 0
-681 149 0
-681 -37 0
-681 34 0
-149 -34 37 681 0
-680 153 0
-680 -37 0
-680 35 0
-153 -35 37 680 0
-679 156 0
-679 -37 0
-679 36 0
-156 -36 37 679 0
-684 159 0
-684 -38 0
-684 37 0
-159 -37 38 684 0
-683 160 0
-683 -39 0
-683 37 0
-160 -37 39 683 0
38 -46 689 688 687 686 685 0
-38 46 690 0
-689 145 0
-689 -38 0
-689 33 0
-145 -33 38 689 0
-688 150 0
-688 -38 0
-688 34 0
-150 -34 38 688 0
-687 154 0
-687 -38 0
-687 35 0
-154 -35 38 687 0
-686 157 0
-686 -38 0
-686 36 0
-157 -36 38 686 0
-685 159 0
-685 -38 0
-685 37 0
-159 -37 38 685 0
-690 161 0
-690 -39 0
-690 38 0
-161 -38 39 690 0
39 -47 696 695 694 693 692 691 0
-39 47 0
-696 146 0
-696 -39 0
-696 33 0
-146 -33 39 696 0
-695 151 0
-695 -39 0
-695 34 0
-151 -34 39 695 0
-694 155 0
-694 -39 0
-694 35 0
-155 -35 39 694 0
-693 158 0
-693 -39 0
-693 36 0
-158 -36 39 693 0
-692 160 0
-692 -39 0
-692 37 0
-160 -37 39 692 0
-691 161 0
-691 -39 0
-691 38 0
-161 -38 39 691 0
40 -48 0
-40 48 0
-141 -33 34 -41 0
-141 -33 34 42 0
-142 -33 35 -41 0
-142 -33 35 43 0
-143 -33 36 -41 0
-143 -33 36 44 0
-144 -33 37 -41 0
-144 -33 37 45 0
-145 -33 38 -41 0
-145 -33 38 46 0
-146 -33 39 -41 0
-146 -33 39 47 0
-147 -34 35 -42 0
-147 -34 35 43 0
-148 -34 36 -42 0
-148 -34 36 44 0
-149 -34 37 -42 0
-149 -34 37 45 0
-150 -34 38 -42 0
-150 -34 38 46 0
-151 -34 39 -42 0
-151 -34 39 47 0
-152 -35 36 -43 0
-152 -35 36 44 0
-153 -35 37 -43 0
-153 -35 37 45 0
-154 -35 38 -43 0
-154 -35 38 46 0
-155 -35 39 -43 0
-155 -35 39 47 0
-156 -36 37 -44 0
-156 -36 37 45 0
-157 -36 38 -44 0
-157 -36 38 46 0
-158 -36 39 -44 0
-158 -36 39 47 0
-159 -37 38 -45 0
-159 -37 38 46 0
-160 -37 39 -45 0
-160 -37 39 47 0
-161 -38 39 -46 0
-161 -38 39 47 0
-623 624 0
-146 624 0
-623 -146 0
-622 623 0
-145 623 0
-622 -145 0
-621 622 0
-144 622 0
-621 -144 0
-620 621 0
-143 621 0
-620 -143 0
-141 620 0
-142 620 0
-141 -142 0
-618 619 0
-151 619 0
-618 -151 0
-617 618 0
-150 618 0
-617 -150 0
-616 617 0
-149 617 0
-616 -149 0
-147 616 0
-148 616 0
-147 -148 0
-141 -151 0
-141 -150 0
-141 -149 0
-141 -148 0
-141 -147 0
-614 615 0
-155 615 0
-614 -155 0
-613 614 0
-154 614 0
-613 -154 0
-152 613 0
-153 613 0
-152 -153 0
-612 -155 0
-612 -154 0
-612 -153 0
-612 -152 0
-142 612 0
-147 612 0
-142 -147 0
-610 611 0
-158 611 0
-610 -158 0
-156 610 0
-157 610 0
-156 -157 0
-609 -158 0
-609 -157 0
-609 -156 0
-608 609 0
-152 609 0
-608 -152 0
-143 608 0
-148 608 0
-143 -148 0
-159 607 0
-160 607 0
-159 -160 0
-606 -160 0
-606 -159 0
-605 606 0
-156 606 0
-605 -156 0
-604 605 0
-153 605 0
-604 -153 0
-144 604 0
-149 604 0
-144 -149 0
-603 -161 0
-602 603 0
-159 603 0
-602 -159 0
-601 602 0
-157 602 0
-601 -157 0
-600 601 0
-154 601 0
-600 -154 0
-145 600 0
-150 600 0
-145 -150 0
-598 599 0
-161 599 0
-598 -161 0
-597 598 0
-160 598 0
-597 -160 0
-596 597 0
-158 597 0
-596 -158 0
-595 596 0
-155 596 0
-595 -155 0
-146 595 0
-151 595 0
-146 -151 0
-653 654 0
-141 654 0
-653 -141 0
-652 653 0
-142 653 0
-652 -142 0
-651 652 0
-143 652 0
-651 -143 0
-650 651 0
-144 651 0
-650 -144 0
-146 650 0
-145 650 0
-146 -145 0
-649 -141 0
-648 649 0
-147 649 0
-648 -147 0
-647 648 0
-148 648 0
-647 -148 0
-646 647 0
-149 647 0
-646 -149 0
-151 646 0
-150 646 0
-151 -150 0
-645 -142 0
-645 -147 0
-644 645 0
-152 645 0
-644 -152 0
-643 644 0
-153 644 0
-643 -153 0
-155 643 0
-154 643 0
-155 -154 0
-147 642 0
-142 642 0
-147 -142 0
-641 -143 0
-641 -148 0
-641 -152 0
-640 641 0
-156 641 0
-640 -156 0
-158 640 0
-157 640 0
-158 -157 0
-638 639 0
-143 639 0
-638 -143 0
-152 638 0
-148 638 0
-152 -148 0
-637 -144 0
-637 -149 0
-637 -153 0
-637 -156 0
-160 637 0
-159 637 0
-160 -159 0
-635 636 0
-144 636 0
-635 -144 0
-634 635 0
-149 635 0
-634 -149 0
-156 634 0
-153 634 0
-156 -153 0
-161 -145 0
-161 -150 0
-161 -154 0
-161 -157 0
-161 -159 0
-632 633 0
-145 633 0
-632 -145 0
-631 632 0
-150 632 0
-631 -150 0
-630 631 0
-154 631 0
-630 -154 0
-159 630 0
-157 630 0
-159 -157 0
-628 629 0
-146 629 0
-628 -146 0
-627 628 0
-151 628 0
-627 -151 0
-626 627 0
-155 627 0
-626 -155 0
-625 626 0
-158 626 0
-625 -158 0
-161 625 0
-160 625 0
-161 -160 0
41 -49 0
-41 49 762 761 760 759 758 757 0
-762 162 0
-762 -42 0
-762 41 0
-162 -41 42 762 0
-761 163 0
-761 -43 0
-761 41 0
-163 -41 43 761 0
-760 164 0
-760 -44 0
-760 41 0
-164 -41 44 760 0
-759 165 0
-759 -45 0
-759 41 0
-165 -41 45 759 0
-758 166 0
-758 -46 0
-758 41 0
-166 -41 46 758 0
-757 167 0
-757 -47 0
-757 41 0
-167 -41 47 757 0
42 -50 763 0
-42 50 768 767 766 765 764 0
-763 162 0
-763 -42 0
-763 41 0
-162 -41 42 763 0
-768 168 0
-768 -43 0
-768 42 0
-168 -42 43 768 0
-767 169 0
-767 -44 0
-767 42 0
-169 -42 44 767 0
-766 170 0
-766 -45 0
-766 42 0
-170 -42 45 766 0
-765 171 0
-765 -46 0
-765 42 0
-171 -42 46 765 0
-764 172 0
-764 -47 0
-764 42 0
-172 -42 47 764 0
43 -51 770 769 0
-43 51 774 773 772 771 0
-770 163 0
-770 -43 0
-770 41 0
-163 -41 43 770 0
-769 168 0
-769 -43 0
-769 42 0
-168 -42 43 769 0
-774 173 0
-774 -44 0
-774 43 0
-173 -43 44 774 0
-773 174 0
-773 -45 0
-773 43 0
-174 -43 45 773 0
-772 175 0
-772 -46 0
-772 43 0
-175 -43 46 772 0
-771 176 0
-771 -47 0
-771 43 0
-176 -43 47 771 0
44 -52 777 776 775 0
-44 52 780 779 778 0
-777 164 0
-777 -44 0
-777 41 0
-164 -41 44 777 0
-776 169 0
-776 -44 0
-776 42 0
-169 -42 44 776 0
-775 173 0
-775 -44 0
-775 43 0
-173 -43 44 775 0
-780 177 0
-780 -45 0
-780 44 0
-177 -44 45 780 0
-779 178 0
-779 -46 0
-779 44 0
-178 -44 46 779 0
-778 179 0
-778 -47 0
-778 44 0
-179 -44 47 778 0
45 -53 784 783 782 781 0
-45 53 786 785 0
-784 165 0
-784 -45 0
-784 41 0
-165 -41 45 784 0
-783 170 0
-783 -45 0
-783 42 0
-170 -42 45 783 0
-782 174 0
-782 -45 0
-782 43 0
-174 -43 45 782 0
-781 177 0
-781 -45 0
-781 44 0
-177 -44 45 781 0
-786 180 0
-786 -46 0
-786 45 0
-180 -45 46 786 0
-785 181 0
-785 -47 0
-785 45 0
-181 -45 47 785 0
46 -54 791 790 789 788 787 0
-46 54 792 0
-791 166 0
-791 -46 0
-791 41 0
-166 -41 46 791 0
-790 171 0
-790 -46 0
-790 42 0
-171 -42 46 790 0
-789 175 0
-789 -46 0
-789 43 0
-175 -43 46 789 0
-788 178 0
-788 -46 0
-788 44 0
-178 -44 46 788 0
-787 180 0
-787 -46 0
-787 45 0
-180 -45 46 787 0
-792 182 0
-792 -47 0
-792 46 0
-182 -46 47 792 0
47 -55 798 797 796 795 794 793 0
-47 55 0
-798 167 0
-798 -47 0
-798 41 0
-167 -41 47 798 0
-797 172 0
-797 -47 0
-797 42 0
-172 -42 47 797 0
-796 176 0
-796 -47 0
-796 43 0
-176 -43 47 796 0
-795 179 0
-795 -47 0
-795 44 0
-179 -44 47 795 0
-794 181 0
-794 -47 0
-794 45 0
-181 -45 47 794 0
-793 182 0
-793 -47 0
-793 46 0
-182 -46 47 793 0
48 -56 0
-48 56 0
-162 -41 42 -49 0
-162 -41 42 50 0
-163 -41 43 -49 0
-163 -41 43 51 0
-164 -41 44 -49 0
-164 -41 44 52 0
-165 -41 45 -49 0
-165 -41 45 53 0
-166 -41 46 -49 0
-166 -41 46 54 0
-167 -41 47 -49 0
-167 -41 47 55 0
-168 -42 43 -50 0
-168 -42 43 51 0
-169 -42 44 -50 0
-169 -42 44 52 0
-170 -42 45 -50 0
-170 -42 45 53 0
-171 -42 46 -50 0
-171 -42 46 54 0
-172 -42 47 -50 0
-172 -42 47 55 0
-173 -43 44 -51 0
-173 -43 44 52 0
-174 -43 45 -51 0
-174 -43 45 53 0
-175 -43 46 -51 0
-175 -43 46 54 0
-176 -43 47 -51 0
-176 -43 47 55 0
-177 -44 45 -52 0
-177 -44 45 53 0
-178 -44 46 -52 0
-178 -44 46 54 0
-179 -44 47 -52 0
-179 -44 47 55 0
-180 -45 46 -53 0
-180 -45 46 54 0
-181 -45 47 -53 0
-181 -45 47 55 0
-182 -46 47 -54 0
-182 -46 47 55 0
-725 726 0
-167 726 0
-725 -167 0
-724 725 0
-166 725 0
-724 -166 0
-723 724 0
-165 724 0
-723 -165 0
-722 723 0
-164 723 0
-722 -164 0
-162 722 0
-163 722 0
-162 -163 0
-720 721 0
-172 721 0
-720 -172 0
-719 720 0
-171 720 0
-719 -171 0
-718 719 0
-170 719 0
-718 -170 0
-168 718 0
-169 718 0
-168 -169 0
-162 -172 0
-162 -171 0
-162 -170 0
-162 -169 0
-162 -168 0
-716 717 0
-176 717 0
-716 -176 0
-715 716 0
-175 716 0
-715 -175 0
-173 715 0
-174 715 0
-173 -174 0
-714 -176 0
-714 -175 0
-714 -174 0
-714 -173 0
-163 714 0
-168 714 0
-163 -168 0
-712 713 0
-179 713 0
-712 -179 0
-177 712 0
-178 712 0
-177 -178 0
-711 -179 0
-711 -178 0
-711 -177 0
-710 711 0
-173 711 0
-710 -173 0
-164 710 0
-169 710 0
-164 -169 0
-180 709 0
-181 709 0
-180 -181 0
-708 -181 0
-708 -180 0
-707 708 0
-177 708 0
-707 -177 0
-706 707 0
-174 707 0
-706 -174 0
-165 706 0
-170 706 0
-165 -170 0
-705 -182 0
-704 705 0
-180 705 0
-704 -180 0
-703 704 0
-178 704 0
-703 -178 0
-702 703 0
-175 703 0
-702 -175 0
-166 702 0
-171 702 0
-166 -171 0
-700 701 0
-182 701 0
-700 -182 0
-699 700 0
-181 700 0
-699 -181 0
-698 699 0
-179 699 0
-698 -179 0
-697 698 0
-176 698 0
-697 -176 0
-167 697 0
-172 697 0
-167 -172 0
-755 756 0
-162 756 0
-755 -162 0
-754 755 0
-163 755 0
-754 -163 0
-753 754 0
-164 754 0
-753 -164 0
-752 753 0
-165 753 0
-752 -165 0
-167 752 0
-166 752 0
-167 -166 0
-751 -162 0
-750 751 0
-168 751 0
-750 -168 0
-749 750 0
-169 750 0
-749 -169 0
-748 749 0
-170 749 0
-748 -170 0
-172 748 0
-171 748 0
-172 -171 0
-747 -163 0
-747 -168 0
-746 747 0
-173 747 0
-746 -173 0
-745 746 0
-174 746 0
-745 -174 0
-176 745 0
-175 745 0
-176 -175 0
-168 744 0
-163 744 0
-168 -163 0
-743 -164 0
-743 -169 0
-743 -173 0
-742 743 0
-177 743 0
-742 -177 0
-179 742 0
-178 742 0
-179 -178 0
-740 741 0
-164 741 0
-740 -164 0
-173 740 0
-169 740 0
-173 -169 0
-739 -165 0
-739 -170 0
-739 -174 0
-739 -177 0
-181 739 0
-180 739 0
-181 -180 0
-737 738 0
-165 738 0
-737 -165 0
-736 737 0
-170 737 0
-736 -170 0
-177 736 0
-174 736 0
-177 -174 0
-182 -166 0
-182 -171 0
-182 -175 0
-182 -178 0
-182 -180 0
-734 735 0
-166 735 0
-734 -166 0
-733 734 0
-171 734 0
-733 -171 0
-732 733 0
-175 733 0
-732 -175 0
-180 732 0
-178 732 0
-180 -178 0
-730 731 0
-167 731 0
-730 -167 0
-729 730 0
-172 730 0
-729 -172 0
-728 729 0
-176 729 0
-728 -176 0
-727 728 0
-179 728 0
-727 -179 0
-182 727 0
-181 727 0
-182 -181 0
